20
587 233 220
78 69 37
115 90 58
68 53 20
119 71 47
100 82 57
88 76 52
95 90 43
87 72 62
80 66 47
120 78 67
103 65 60
86 60 50
80 49 37
94 83 36
92 59 51
118 67 35
80 78 62
91 58 33
114 78 49
76 54 40
thpack7_93